(set-info :source |printed by MathSAT|)
(declare-fun call_synapse.ite10 () Int)
(declare-fun call_First.First () Int)
(declare-fun param_init_invalid_s () Int)
(declare-fun call_synapse.invalid_s () Int)
(declare-fun valid_s () Int)
(declare-fun call_synapse.flby () Int)
(declare-fun call_synapse.ite3 () Int)
(declare-fun param_e_s2 () Bool)
(declare-fun call_synapse.flby4 () Int)
(declare-fun call_synapse.ite13 () Int)
(declare-fun call_synapse.dirty_s () Int)
(declare-fun call_synapse.ite () Int)
(declare-fun param_e_s3 () Bool)
(declare-fun call_First.flby () Int)
(declare-fun call_synapse.ite11 () Int)
(declare-fun mem_init_s () Int)
(declare-fun call_synapse.ite12 () Int)
(declare-fun _OK_ () Bool)
(declare-fun call_excludes3.excludes () Bool)
(declare-fun dirty_s () Int)
(declare-fun call_synapse.ite2 () Int)
(declare-fun call_synapse.ite7 () Int)
(declare-fun call_synapse.garde_s2 () Bool)
(declare-fun call_synapse.ite5 () Int)
(declare-fun call_synapse.flby2 () Int)
(declare-fun call_synapse.flby3 () Int)
(declare-fun call_synapse.ite6 () Int)
(declare-fun call_synapse.valid_s () Int)
(declare-fun env () Bool)
(declare-fun call_synapse.ite16 () Int)
(declare-fun call_synapse.ite15 () Int)
(declare-fun call_synapse.garde_s3 () Bool)
(declare-fun call_synapse.ite4 () Int)
(declare-fun call_Sofar.Sofar () Bool)
(declare-fun call_synapse.ite17 () Int)
(declare-fun call_synapse.ite14 () Int)
(declare-fun call_synapse.ite9 () Int)
(declare-fun call_synapse.ite8 () Int)
(declare-fun invalid_s () Int)
(declare-fun call_synapse.ite18 () Int)
(declare-fun param_e_s1 () Bool)
(declare-fun call_synapse.garde_s1 () Bool)
(declare-fun call_synapse.mem_init_s () Int)
(declare-fun flby () Bool)
(declare-fun call_Sofar.flby () Bool)
(define-fun .def_642 () Bool (= call_First.flby call_First.First))
(define-fun .def_640 () Bool (= call_Sofar.flby call_Sofar.Sofar))
(define-fun .def_635 () Bool (and param_e_s3 param_e_s2))
(define-fun .def_633 () Bool (and param_e_s3 param_e_s1))
(define-fun .def_632 () Bool (and param_e_s1 param_e_s2))
(define-fun .def_634 () Bool (or .def_632 .def_633))
(define-fun .def_636 () Bool (or .def_634 .def_635))
(define-fun .def_637 () Bool (not .def_636))
(define-fun .def_638 () Bool (= call_excludes3.excludes .def_637))
(define-fun .def_630 () Bool (= call_synapse.flby call_synapse.mem_init_s))
(define-fun .def_628 () Bool (= call_synapse.flby4 call_synapse.dirty_s))
(define-fun .def_626 () Bool (= call_synapse.flby3 call_synapse.valid_s))
(define-fun .def_624 () Bool (= call_synapse.flby2 call_synapse.invalid_s))
(define-fun .def_620 () Bool (= call_synapse.ite16 call_synapse.ite17))
(define-fun .def_621 () Bool (or param_e_s2 .def_620))
(define-fun .def_617 () Bool (= call_synapse.ite14 call_synapse.ite17))
(define-fun .def_608 () Bool (not param_e_s2))
(define-fun .def_618 () Bool (or .def_608 .def_617))
(define-fun .def_614 () Bool (= call_synapse.ite10 call_synapse.ite11))
(define-fun .def_615 () Bool (or param_e_s2 .def_614))
(define-fun .def_611 () Bool (= call_synapse.ite8 call_synapse.ite11))
(define-fun .def_612 () Bool (or .def_608 .def_611))
(define-fun .def_607 () Bool (= call_synapse.ite5 call_synapse.ite2))
(define-fun .def_609 () Bool (or .def_607 .def_608))
(define-fun .def_603 () Bool (= call_synapse.ite4 call_synapse.ite5))
(define-fun .def_605 () Bool (or .def_603 param_e_s2))
(define-fun .def_610 () Bool (and .def_605 .def_609))
(define-fun .def_613 () Bool (and .def_610 .def_612))
(define-fun .def_616 () Bool (and .def_613 .def_615))
(define-fun .def_619 () Bool (and .def_616 .def_618))
(define-fun .def_622 () Bool (and .def_619 .def_621))
(define-fun .def_599 () Bool (= call_synapse.ite18 call_synapse.ite17))
(define-fun .def_600 () Bool (or param_e_s1 .def_599))
(define-fun .def_595 () Bool (= call_synapse.ite13 call_synapse.ite18))
(define-fun .def_582 () Bool (not param_e_s1))
(define-fun .def_596 () Bool (or .def_582 .def_595))
(define-fun .def_591 () Bool (= call_synapse.ite12 call_synapse.ite11))
(define-fun .def_592 () Bool (or param_e_s1 .def_591))
(define-fun .def_587 () Bool (= call_synapse.ite7 call_synapse.ite12))
(define-fun .def_588 () Bool (or .def_582 .def_587))
(define-fun .def_581 () Bool (= call_synapse.ite6 call_synapse.ite))
(define-fun .def_583 () Bool (or .def_581 .def_582))
(define-fun .def_577 () Bool (= call_synapse.ite6 call_synapse.ite5))
(define-fun .def_579 () Bool (or .def_577 param_e_s1))
(define-fun .def_584 () Bool (and .def_579 .def_583))
(define-fun .def_589 () Bool (and .def_584 .def_588))
(define-fun .def_593 () Bool (and .def_589 .def_592))
(define-fun .def_597 () Bool (and .def_593 .def_596))
(define-fun .def_601 () Bool (and .def_597 .def_600))
(define-fun .def_573 () Bool (= env call_Sofar.Sofar))
(define-fun .def_570 () Bool (= call_synapse.mem_init_s mem_init_s))
(define-fun .def_567 () Bool (= dirty_s call_synapse.dirty_s))
(define-fun .def_564 () Bool (= valid_s call_synapse.valid_s))
(define-fun .def_561 () Bool (= invalid_s call_synapse.invalid_s))
(define-fun .def_551 () Int (* (- 1) call_First.First))
(define-fun .def_552 () Int (+ invalid_s .def_551))
(define-fun .def_553 () Int (+ valid_s .def_552))
(define-fun .def_554 () Int (+ dirty_s .def_553))
(define-fun .def_555 () Bool (= .def_554 0))
(define-fun .def_540 () Bool (<= 2 dirty_s))
(define-fun .def_541 () Bool (not .def_540))
(define-fun .def_542 () Bool (and flby .def_541))
(define-fun .def_556 () Bool (and .def_542 .def_555))
(define-fun .def_537 () Bool (<= 1 valid_s))
(define-fun .def_538 () Bool (not .def_537))
(define-fun .def_534 () Bool (<= 1 dirty_s))
(define-fun .def_535 () Bool (not .def_534))
(define-fun .def_539 () Bool (or .def_535 .def_538))
(define-fun .def_557 () Bool (and .def_539 .def_556))
(define-fun .def_532 () Bool (not env))
(define-fun .def_558 () Bool (or .def_532 .def_557))
(define-fun .def_559 () Bool (= _OK_ .def_558))
(define-fun .def_562 () Bool (and .def_559 .def_561))
(define-fun .def_565 () Bool (and .def_562 .def_564))
(define-fun .def_568 () Bool (and .def_565 .def_567))
(define-fun .def_571 () Bool (and .def_568 .def_570))
(define-fun .def_574 () Bool (and .def_571 .def_573))
(define-fun .def_602 () Bool (and .def_574 .def_601))
(define-fun .def_623 () Bool (and .def_602 .def_622))
(define-fun .def_625 () Bool (and .def_623 .def_624))
(define-fun .def_627 () Bool (and .def_625 .def_626))
(define-fun .def_629 () Bool (and .def_627 .def_628))
(define-fun .def_631 () Bool (and .def_629 .def_630))
(define-fun .def_639 () Bool (and .def_631 .def_638))
(define-fun .def_641 () Bool (and .def_639 .def_640))
(define-fun .def_643 () Bool (and .def_641 .def_642))
(define-fun .def_528 () Bool (= param_init_invalid_s call_First.flby))
(define-fun .def_521 () Bool (<= 0 param_init_invalid_s))
(define-fun .def_523 () Bool (and .def_521 call_excludes3.excludes))
(define-fun .def_525 () Bool (= .def_523 call_Sofar.flby))
(define-fun .def_519 () Bool (= call_synapse.flby4 0))
(define-fun .def_516 () Bool (= call_synapse.flby3 0))
(define-fun .def_513 () Bool (= call_synapse.flby2 call_synapse.mem_init_s))
(define-fun .def_509 () Bool (= param_init_invalid_s call_synapse.flby))
(define-fun .def_503 () Bool (= call_synapse.ite9 0))
(define-fun .def_501 () Bool (not call_synapse.garde_s3))
(define-fun .def_504 () Bool (or .def_501 .def_503))
(define-fun .def_499 () Bool (= call_synapse.ite15 1))
(define-fun .def_502 () Bool (or .def_499 .def_501))
(define-fun .def_505 () Bool (and .def_502 .def_504))
(define-fun .def_495 () Bool (= call_synapse.ite8 0))
(define-fun .def_492 () Bool (not call_synapse.garde_s2))
(define-fun .def_496 () Bool (or .def_492 .def_495))
(define-fun .def_490 () Bool (= call_synapse.ite14 1))
(define-fun .def_493 () Bool (or .def_490 .def_492))
(define-fun .def_497 () Bool (and .def_493 .def_496))
(define-fun .def_486 () Bool (= call_synapse.ite13 0))
(define-fun .def_484 () Bool (not call_synapse.garde_s1))
(define-fun .def_487 () Bool (or .def_484 .def_486))
(define-fun .def_478 () Bool (= call_synapse.ite15 call_synapse.ite16))
(define-fun .def_469 () Bool (not param_e_s3))
(define-fun .def_479 () Bool (or .def_469 .def_478))
(define-fun .def_473 () Bool (= call_synapse.ite3 call_synapse.ite4))
(define-fun .def_474 () Bool (or .def_469 .def_473))
(define-fun .def_467 () Bool (= call_synapse.ite9 call_synapse.ite10))
(define-fun .def_470 () Bool (or .def_467 .def_469))
(define-fun .def_475 () Bool (and .def_470 .def_474))
(define-fun .def_480 () Bool (and .def_475 .def_479))
(define-fun .def_482 () Bool (and .def_480 flby))
(define-fun .def_488 () Bool (and .def_482 .def_487))
(define-fun .def_498 () Bool (and .def_488 .def_497))
(define-fun .def_506 () Bool (and .def_498 .def_505))
(define-fun .def_510 () Bool (and .def_506 .def_509))
(define-fun .def_514 () Bool (and .def_510 .def_513))
(define-fun .def_517 () Bool (and .def_514 .def_516))
(define-fun .def_520 () Bool (and .def_517 .def_519))
(define-fun .def_526 () Bool (and .def_520 .def_525))
(define-fun .def_529 () Bool (and .def_526 .def_528))
(define-fun .def_644 () Bool (and .def_529 .def_643))
(assert .def_644)
